Mack/Bortfeldt(2008)
Bin-Packing-Problem
BP-RG/SBSBPP/SSSCSP
Testcase-ID	5
Problem-ID	40
no_item_types	10
no_items	2175
CONTAINER_DATA (l,w,h)	459	105	93
ITEMS_DATA:
Type	x	y	z	no_items
1	102	96	59	215
2	95	76	60	222
3	109	63	28	220
4	80	52	42	232
5	74	64	35	215
6	68	66	31	229
7	120	34	26	199
8	61	47	34	211
9	53	45	36	206
10	53	40	36	226
